TITL 03_CHOF_a.res in P2(1)2(1)2(1)
REM Old TITL 03_CHOF in P2(1)2(1)2(1)
REM SHELXT solution in P2(1)2(1)2(1): R1 0.112, Rweak 0.014, Alpha 0.002
REM <I/s>   0.623 for   18 systematic absences,  Orientation as input
REM Flack x =  0.260 ( 0.152 ) from   448 Parsons' quotients
REM Formula found by SHELXT:  C7 O F3

CELL  0.61000   3.8530   6.1310  26.0590   90.000   90.000   90.000
ZERR   14.000   0.0008   0.0012   0.0052    0.000    0.000    0.000
LATT -1
SYMM 1/2-X, -Y, 1/2+Z
SYMM -X, 1/2+Y, 1/2-Z
SYMM 1/2+X, 1/2-Y, -Z
SFAC C H O F
UNIT 14 14 14 14
TEMP -100.15
SIZE 0.072 0.075 0.109
L.S. 10
BOND $H
FMAP 2
PLAN 20
F001  4  0.59976  0.31663  0.33539 11.00000  0.03137   9.03
F002  4  0.08556  0.77278  0.45843 11.00000  0.03116   8.97
F003  4  0.10198  0.97433  0.28592 11.00000  0.03382   8.80
O004  3  0.63604  0.23366  0.43918 11.00000  0.03493   7.68
C005  1  0.35313  0.64293  0.30939 11.00000  0.02288   6.04
C006  1  0.35444  0.53765  0.40071 11.00000  0.01953   6.04
C007  1  0.18155  0.73256  0.41014 11.00000  0.01972   6.04
C008  1  0.08865  0.88488  0.37317 11.00000  0.02335   5.95
C009  1  0.43748  0.49827  0.34860 11.00000  0.01854   5.93
C00A  1  0.18609  0.83366  0.32327 11.00000  0.02335   5.93
C00B  1  0.44431  0.38825  0.44229 11.00000  0.02439   5.88
HKLF 4 
END  




